40 1 3
329 642 220 609 5 806 60 79 9 678 619 798 832 460 111 158 809 950 66 271 709 152 740 351 254 153 160 702 847 785 438 175 426 658 783 430 463 843 509 471 
520 127 269 351 586 379 509 395 329 574 665 37 725 405 388 978 557 548 680 403 332 118 578 757 775 360 187 238 202 696 708 722 823 976 73 408 355 581 803 683 
155 467 720 880 872 108 858 429 655 537 832 986 654 409 743 429 769 930 666 970 626 374 692 448 349 764 856 704 344 658 387 498 125 106 378 996 213 235 425 868 
7710 2560 8530 4250 6650 5960 8530 4330 5250 5180 4030 1510 8910 940 5980 2400 8570 4530 9440 2010 1110 3300 6990 2350 4360 760 2310 6490 3100 6560 5160 810 9110 3690 5050 5760 9640 3570 80 4890 
96180
